(set-logic ALL)
(set-option :produce-models true)
(declare-sort BoundSet 0)
(declare-sort UnboundSet 0)
(set-option :finite-model-find true)
(declare-fun AreInPineIslandBay (BoundSet) Bool)
(declare-fun AreInAntarctica (BoundSet) Bool)
(declare-fun AreLargest (BoundSet) Bool)
(declare-fun AreFastestMelting (BoundSet) Bool)
(declare-fun IsCoastal (BoundSet) Bool)
(declare-fun IsOnPlanet (BoundSet) Bool)
(declare-fun WouldBeSubmerged (BoundSet) Bool)
(assert (not (=> (exists ((a BoundSet)) (and (AreInPineIslandBay a) (and (AreInAntarctica a) (and (AreLargest a) (AreFastestMelting a))))) (exists ((c BoundSet)) (and (IsCoastal c) (and (IsOnPlanet c) (WouldBeSubmerged c)))))))
(check-sat)
(get-model)